n_blocks=22;
chip_width=26;
widths=[3, 3, 3, 3, 3, 3, 3, 3, 3, 3, 3, 3, 3, 3, 3, 4, 4, 4, 4, 4, 4, 4];
heights=[3, 4, 5, 6, 7, 8, 9, 10, 11, 12, 14, 15, 16, 17, 19, 3, 4, 5, 7, 8, 11, 14];
chip_max_height=34